certificates/rado_a11_c280_N39.cnf
c Rad2 upper bound instance: x1 + 11*x2 - x3 = 280, interval [1,39]
p cnf 39 270
1 7 26 0
-1 -7 -26 0
1 18 27 0
-1 -18 -27 0
1 28 29 0
-1 -28 -29 0
2 8 26 0
-2 -8 -26 0
2 19 27 0
-2 -19 -27 0
2 28 30 0
-2 -28 -30 0
3 9 26 0
-3 -9 -26 0
3 20 27 0
-3 -20 -27 0
3 28 31 0
-3 -28 -31 0
4 10 26 0
-4 -10 -26 0
4 21 27 0
-4 -21 -27 0
4 28 32 0
-4 -28 -32 0
5 11 26 0
-5 -11 -26 0
5 22 27 0
-5 -22 -27 0
5 28 33 0
-5 -28 -33 0
1 6 25 0
-1 -6 -25 0
6 12 26 0
-6 -12 -26 0
6 23 27 0
-6 -23 -27 0
6 28 34 0
-6 -28 -34 0
2 7 25 0
-2 -7 -25 0
7 13 26 0
-7 -13 -26 0
7 24 27 0
-7 -24 -27 0
7 28 35 0
-7 -28 -35 0
3 8 25 0
-3 -8 -25 0
8 14 26 0
-8 -14 -26 0
8 25 27 0
-8 -25 -27 0
8 28 36 0
-8 -28 -36 0
4 9 25 0
-4 -9 -25 0
9 15 26 0
-9 -15 -26 0
9 26 27 0
-9 -26 -27 0
9 28 37 0
-9 -28 -37 0
5 10 25 0
-5 -10 -25 0
10 16 26 0
-10 -16 -26 0
10 27 0
-10 -27 0
10 28 38 0
-10 -28 -38 0
6 11 25 0
-6 -11 -25 0
11 17 26 0
-11 -17 -26 0
11 27 28 0
-11 -27 -28 0
11 28 39 0
-11 -28 -39 0
7 12 25 0
-7 -12 -25 0
12 18 26 0
-12 -18 -26 0
12 27 29 0
-12 -27 -29 0
8 13 25 0
-8 -13 -25 0
13 19 26 0
-13 -19 -26 0
13 27 30 0
-13 -27 -30 0
9 14 25 0
-9 -14 -25 0
14 20 26 0
-14 -20 -26 0
14 27 31 0
-14 -27 -31 0
10 15 25 0
-10 -15 -25 0
15 21 26 0
-15 -21 -26 0
15 27 32 0
-15 -27 -32 0
11 16 25 0
-11 -16 -25 0
16 22 26 0
-16 -22 -26 0
16 27 33 0
-16 -27 -33 0
1 17 24 0
-1 -17 -24 0
12 17 25 0
-12 -17 -25 0
17 23 26 0
-17 -23 -26 0
17 27 34 0
-17 -27 -34 0
2 18 24 0
-2 -18 -24 0
13 18 25 0
-13 -18 -25 0
18 24 26 0
-18 -24 -26 0
18 27 35 0
-18 -27 -35 0
3 19 24 0
-3 -19 -24 0
14 19 25 0
-14 -19 -25 0
19 25 26 0
-19 -25 -26 0
19 27 36 0
-19 -27 -36 0
4 20 24 0
-4 -20 -24 0
15 20 25 0
-15 -20 -25 0
20 26 0
-20 -26 0
20 27 37 0
-20 -27 -37 0
5 21 24 0
-5 -21 -24 0
16 21 25 0
-16 -21 -25 0
21 26 27 0
-21 -26 -27 0
21 27 38 0
-21 -27 -38 0
6 22 24 0
-6 -22 -24 0
17 22 25 0
-17 -22 -25 0
22 26 28 0
-22 -26 -28 0
22 27 39 0
-22 -27 -39 0
7 23 24 0
-7 -23 -24 0
18 23 25 0
-18 -23 -25 0
23 26 29 0
-23 -26 -29 0
8 24 0
-8 -24 0
19 24 25 0
-19 -24 -25 0
24 26 30 0
-24 -26 -30 0
9 24 25 0
-9 -24 -25 0
20 25 0
-20 -25 0
25 26 31 0
-25 -26 -31 0
10 24 26 0
-10 -24 -26 0
21 25 26 0
-21 -25 -26 0
26 32 0
-26 -32 0
11 24 27 0
-11 -24 -27 0
22 25 27 0
-22 -25 -27 0
26 27 33 0
-26 -27 -33 0
1 23 28 0
-1 -23 -28 0
12 24 28 0
-12 -24 -28 0
23 25 28 0
-23 -25 -28 0
26 28 34 0
-26 -28 -34 0
2 23 29 0
-2 -23 -29 0
13 24 29 0
-13 -24 -29 0
24 25 29 0
-24 -25 -29 0
26 29 35 0
-26 -29 -35 0
3 23 30 0
-3 -23 -30 0
14 24 30 0
-14 -24 -30 0
25 30 0
-25 -30 0
26 30 36 0
-26 -30 -36 0
4 23 31 0
-4 -23 -31 0
15 24 31 0
-15 -24 -31 0
26 31 37 0
-26 -31 -37 0
5 23 32 0
-5 -23 -32 0
16 24 32 0
-16 -24 -32 0
25 27 32 0
-25 -27 -32 0
26 32 38 0
-26 -32 -38 0
6 23 33 0
-6 -23 -33 0
17 24 33 0
-17 -24 -33 0
25 28 33 0
-25 -28 -33 0
26 33 39 0
-26 -33 -39 0
7 23 34 0
-7 -23 -34 0
18 24 34 0
-18 -24 -34 0
25 29 34 0
-25 -29 -34 0
8 23 35 0
-8 -23 -35 0
19 24 35 0
-19 -24 -35 0
25 30 35 0
-25 -30 -35 0
9 23 36 0
-9 -23 -36 0
20 24 36 0
-20 -24 -36 0
25 31 36 0
-25 -31 -36 0
10 23 37 0
-10 -23 -37 0
21 24 37 0
-21 -24 -37 0
25 32 37 0
-25 -32 -37 0
11 23 38 0
-11 -23 -38 0
22 24 38 0
-22 -24 -38 0
25 33 38 0
-25 -33 -38 0
1 22 39 0
-1 -22 -39 0
12 23 39 0
-12 -23 -39 0
23 24 39 0
-23 -24 -39 0
25 34 39 0
-25 -34 -39 0
