certificates/rado_a11_c280_N39.drat
25 -36 -37 0
28 29 34 -25 0
-35 34 -25 0
-25 -39 0
-37 25 0
d 25 -36 -37 0
-38 -39 0
-23 -39 0
-39 0
23 26 0
26 0
-20 0
-32 0
25 0
-30 0
-31 0
-19 0
-21 0
-23 0
3 0
4 0
5 0
12 0
24 0
-8 0
-9 0
-10 0
-11 0
-6 0
-7 0
-18 0
-17 0
-28 0
-29 0
36 0
35 0
37 0
27 0
38 0
0
